Structure after the SSCHA relaxation
 1.0000000000000000
     1.8020989710945159   -1.0404423260677473    2.9430162385058805
    -0.0000000000000025    2.0808846521354885    2.9430162385058862
    -1.8020989710945146   -1.0404423260677507    2.9430162385058809
 La  H  
   1  10
Direct
  0.5000000049980364  0.5000000049980364  0.5000000049980350
  0.2506006872175522  0.2506006872175520  0.2506006872175521
 -0.2506006872175522 -0.2506006872175520 -0.2506006872175521
  0.1200760326423103  0.1200760326423104  0.1200760326423103
 -0.1200760326423103 -0.1200760326423104 -0.1200760326423103
  0.8801233038206090  0.8801233035473579  0.3601286576689707
  0.8801233035473588  0.3601286579422225  0.8801233035473570
  0.3601286576689722  0.8801233035473567  0.8801233038206095
  0.1198767060322106  0.6398713516373464  0.1198767060322104
  0.6398713519105987  0.1198767060322111  0.1198767057589591
  0.1198767057589602  0.1198767060322109  0.6398713519105981
