Structure after the SSCHA relaxation
 1.0000000000000000
     1.7976929139086453   -1.0378984877645452    2.9317755640625731
    -0.0000000000000035    2.0757969755290842    2.9317755640625696
    -1.7976929139086524   -1.0378984877645443    2.9317755640625665
 La  H  
   1  10
Direct
  0.5000000049980361  0.5000000049980357  0.5000000049980360
  0.2503792310112605  0.2503792310112605  0.2503792310112604
 -0.2503792310112605 -0.2503792310112605 -0.2503792310112604
  0.1204185471793249  0.1204185471793249  0.1204185471793247
 -0.1204185471793249 -0.1204185471793249 -0.1204185471793247
  0.8799369352310304  0.8799369349577379  0.3613451001711295
  0.8799369349577385  0.3613451004444210  0.8799369349577367
  0.3613451001711301  0.8799369349577373  0.8799369352310287
  0.1200630746218310  0.6386549091351469  0.1200630746218308
  0.6386549094084388  0.1200630746218308  0.1200630743485393
  0.1200630743485395  0.1200630746218310  0.6386549094084378
