La  H 
 1.0000000000000000
     1.8216054416065011   -1.0517043920322153    2.8381869915015971
     0.0000000000000000    2.1034087840644307    2.8381869915015971
    -1.8216054416065011   -1.0517043920322153    2.8381869915015971
 La  H  
   1  10
Direct
  0.5000000049980359  0.5000000049980358  0.5000000049980358
  0.2575442837324633  0.2575442837324634  0.2575442837324633
 -0.2575442837324633 -0.2575442837324634 -0.2575442837324633
  0.1046347156979980  0.1046347156979980  0.1046347156979979
 -0.1046347156979980 -0.1046347156979980 -0.1046347156979979
  0.8898951245718155  0.8898951242983463  0.3789500656704775
  0.8898951242983463  0.3789500659439468  0.8898951242983463
  0.3789500656704778  0.8898951242983463  0.8898951245718153
  0.1101048852812222  0.6210499436356219  0.1101048852812222
  0.6210499439090911  0.1101048852812223  0.1101048850077531
  0.1101048850077532  0.1101048852812223  0.6210499439090910
